%nprocshared=4
%mem=4GB
%chk=ligand.chk
# opt=tight hf/6-31g(d) nosymm pop=mk iop(6/33=2,6/42=6,6/50=1)
scf=novaracc

lig

0 1
 C                 50.78100000  101.01200000   28.47000000
 C                 50.14600000  101.84700000   27.63700000
 C                 49.75600000  101.41200000   26.43200000
 C                 50.00100000  100.14300000   26.06400000
 C                 50.64200000   99.29900000   26.90200000
 C                 51.03900000   99.73800000   28.11800000
 C                 49.61500000   99.69400000   24.85500000
 N                 49.81100000   98.51900000   24.43200000
 C                 50.41200000   97.72200000   25.20600000
 C                 50.84400000   98.05200000   26.43400000
 S                 51.88900000   98.72300000   29.32400000
 O                 51.07400000   97.74800000   30.05600000
 O                 53.27200000   98.36200000   28.98500000
 N                 52.31100000   99.65900000   30.69800000
 C                 52.20600000   98.98900000   31.98900000
 C                 53.15000000   97.80300000   32.24700000
 C                 54.60900000   98.16900000   32.53800000
 N                 55.20900000   99.06300000   31.55400000
 C                 54.62900000  100.40200000   31.54100000
 H                 56.23300000   99.14500000   31.77300000
 C                 53.45900000  100.55100000   30.55500000
 H                 51.08882456  101.36364805   29.43254231
 H                 49.95132817  102.85665359   27.93297722
 H                 49.24927240  102.07491308   25.76216913
 H                 49.10757680  100.37853328   24.20782468
 H                 50.58746327   96.72390932   24.86259406
 H                 51.34707586   97.32673591   27.03881954
 H                 51.22160352   98.56997832   32.00586422
 H                 52.48499089   99.72875017   32.70999498
 H                 53.17185766   97.25143894   31.33037432
 H                 52.78838672   97.34017865   33.14138931
 H                 55.15742614   97.25270748   32.47064431
 H                 54.59340899   98.71686181   33.45696918
 H                 55.39951200  101.05239109   31.18294596
 H                 54.21281573  100.55129901   32.51537183
 H                 53.06926137  101.53044162   30.73856994
 H                 53.87464442  100.31117087   29.59864143

lig_ini.gesp

lig.gesp

